p tw 520 11961 8 
1 9 
1 11 
2 7 
2 10 
2 12 
3 4 
3 5 
3 8 
3 10 
4 6 
4 7 
4 9 
5 6 
5 9 
5 10 
6 7 
6 8 
7 8 
7 9 
7 10 
8 9 
8 10 
9 10 
11 18 
11 19 
12 17 
12 20 
13 14 
13 18 
13 20 
13 23 
14 17 
14 19 
14 24 
15 16 
15 19 
15 20 
15 25 
16 17 
16 18 
16 26 
17 18 
17 19 
17 20 
18 19 
18 20 
19 20 
21 28 
21 29 
21 31 
22 27 
22 30 
22 32 
23 24 
23 28 
23 30 
24 27 
24 29 
25 26 
25 29 
25 30 
26 27 
26 28 
27 28 
27 29 
27 30 
28 29 
28 30 
29 30 
31 38 
31 39 
32 37 
32 40 
33 34 
33 38 
33 40 
33 43 
34 37 
34 39 
34 44 
35 36 
35 39 
35 40 
35 45 
36 37 
36 38 
36 46 
37 38 
37 39 
37 40 
38 39 
38 40 
39 40 
41 48 
41 49 
41 51 
42 47 
42 50 
42 52 
43 44 
43 48 
43 50 
44 47 
44 49 
45 46 
45 49 
45 50 
46 47 
46 48 
47 48 
47 49 
47 50 
48 49 
48 50 
49 50 
51 58 
51 59 
52 57 
52 60 
53 54 
53 58 
53 60 
53 63 
54 57 
54 59 
54 64 
55 56 
55 59 
55 60 
55 65 
56 57 
56 58 
56 66 
57 58 
57 59 
57 60 
58 59 
58 60 
59 60 
61 68 
61 69 
61 71 
62 67 
62 70 
62 72 
63 64 
63 68 
63 70 
64 67 
64 69 
65 66 
65 69 
65 70 
66 67 
66 68 
67 68 
67 69 
67 70 
68 69 
68 70 
69 70 
71 78 
71 79 
72 77 
72 80 
73 74 
73 78 
73 80 
73 83 
74 77 
74 79 
74 84 
75 76 
75 79 
75 80 
75 85 
76 77 
76 78 
76 86 
77 78 
77 79 
77 80 
78 79 
78 80 
79 80 
81 88 
81 89 
81 91 
82 87 
82 90 
82 92 
83 84 
83 88 
83 90 
84 87 
84 89 
85 86 
85 89 
85 90 
86 87 
86 88 
87 88 
87 89 
87 90 
88 89 
88 90 
89 90 
91 98 
91 99 
92 97 
92 100 
93 94 
93 98 
93 100 
93 103 
94 97 
94 99 
94 104 
95 96 
95 99 
95 100 
95 105 
96 97 
96 98 
96 106 
97 98 
97 99 
97 100 
98 99 
98 100 
99 100 
101 108 
101 109 
101 111 
102 107 
102 110 
102 112 
103 104 
103 108 
103 110 
104 107 
104 109 
105 106 
105 109 
105 110 
106 107 
106 108 
107 108 
107 109 
107 110 
108 109 
108 110 
109 110 
111 118 
111 119 
112 117 
112 120 
113 114 
113 118 
113 120 
113 123 
114 117 
114 119 
114 124 
115 116 
115 119 
115 120 
115 125 
116 117 
116 118 
116 126 
117 118 
117 119 
117 120 
118 119 
118 120 
119 120 
121 128 
121 129 
121 131 
122 127 
122 130 
122 132 
123 124 
123 128 
123 130 
124 127 
124 129 
125 126 
125 129 
125 130 
126 127 
126 128 
127 128 
127 129 
127 130 
128 129 
128 130 
129 130 
131 138 
131 139 
132 137 
132 140 
133 134 
133 138 
133 140 
133 143 
134 137 
134 139 
134 144 
135 136 
135 139 
135 140 
135 145 
136 137 
136 138 
136 146 
137 138 
137 139 
137 140 
138 139 
138 140 
139 140 
141 148 
141 149 
141 151 
142 147 
142 150 
142 152 
143 144 
143 148 
143 150 
144 147 
144 149 
145 146 
145 149 
145 150 
146 147 
146 148 
147 148 
147 149 
147 150 
148 149 
148 150 
149 150 
151 158 
151 159 
152 157 
152 160 
153 154 
153 158 
153 160 
153 163 
154 157 
154 159 
154 164 
155 156 
155 159 
155 160 
155 165 
156 157 
156 158 
156 166 
157 158 
157 159 
157 160 
158 159 
158 160 
159 160 
161 168 
161 169 
161 171 
162 167 
162 170 
162 172 
163 164 
163 168 
163 170 
164 167 
164 169 
165 166 
165 169 
165 170 
166 167 
166 168 
167 168 
167 169 
167 170 
168 169 
168 170 
169 170 
171 178 
171 179 
172 177 
172 180 
173 174 
173 178 
173 180 
173 183 
174 177 
174 179 
174 184 
175 176 
175 179 
175 180 
175 185 
176 177 
176 178 
176 186 
177 178 
177 179 
177 180 
178 179 
178 180 
179 180 
181 188 
181 189 
181 191 
182 187 
182 190 
182 192 
183 184 
183 188 
183 190 
184 187 
184 189 
185 186 
185 189 
185 190 
186 187 
186 188 
187 188 
187 189 
187 190 
188 189 
188 190 
189 190 
191 198 
191 199 
192 197 
192 200 
193 194 
193 198 
193 200 
193 203 
194 197 
194 199 
194 204 
195 196 
195 199 
195 200 
195 205 
196 197 
196 198 
196 206 
197 198 
197 199 
197 200 
198 199 
198 200 
199 200 
201 208 
201 209 
201 211 
202 207 
202 210 
202 212 
203 204 
203 208 
203 210 
204 207 
204 209 
205 206 
205 209 
205 210 
206 207 
206 208 
207 208 
207 209 
207 210 
208 209 
208 210 
209 210 
211 218 
211 219 
212 217 
212 220 
213 214 
213 218 
213 220 
213 223 
214 217 
214 219 
214 224 
215 216 
215 219 
215 220 
215 225 
216 217 
216 218 
216 226 
217 218 
217 219 
217 220 
218 219 
218 220 
219 220 
221 228 
221 229 
221 231 
222 227 
222 230 
222 232 
223 224 
223 228 
223 230 
224 227 
224 229 
225 226 
225 229 
225 230 
226 227 
226 228 
227 228 
227 229 
227 230 
228 229 
228 230 
229 230 
231 238 
231 239 
232 237 
232 240 
233 234 
233 238 
233 240 
233 243 
234 237 
234 239 
234 244 
235 236 
235 239 
235 240 
235 245 
236 237 
236 238 
236 246 
237 238 
237 239 
237 240 
238 239 
238 240 
239 240 
241 248 
241 249 
241 251 
242 247 
242 250 
242 252 
243 244 
243 248 
243 250 
244 247 
244 249 
245 246 
245 249 
245 250 
246 247 
246 248 
247 248 
247 249 
247 250 
248 249 
248 250 
249 250 
251 258 
251 259 
252 257 
252 260 
253 254 
253 258 
253 260 
253 263 
254 257 
254 259 
254 264 
255 256 
255 259 
255 260 
255 265 
256 257 
256 258 
256 266 
257 258 
257 259 
257 260 
258 259 
258 260 
259 260 
261 268 
261 269 
261 271 
262 267 
262 270 
262 272 
263 264 
263 268 
263 270 
264 267 
264 269 
265 266 
265 269 
265 270 
266 267 
266 268 
267 268 
267 269 
267 270 
268 269 
268 270 
269 270 
271 278 
271 279 
272 277 
272 280 
273 274 
273 278 
273 280 
273 283 
274 277 
274 279 
274 284 
275 276 
275 279 
275 280 
275 285 
276 277 
276 278 
276 286 
277 278 
277 279 
277 280 
278 279 
278 280 
279 280 
281 288 
281 289 
281 291 
282 287 
282 290 
282 292 
283 284 
283 288 
283 290 
284 287 
284 289 
285 286 
285 289 
285 290 
286 287 
286 288 
287 288 
287 289 
287 290 
288 289 
288 290 
289 290 
291 298 
291 299 
292 297 
292 300 
293 294 
293 298 
293 300 
293 303 
294 297 
294 299 
294 304 
295 296 
295 299 
295 300 
295 305 
296 297 
296 298 
296 306 
297 298 
297 299 
297 300 
298 299 
298 300 
299 300 
301 308 
301 309 
301 311 
302 307 
302 310 
302 312 
303 304 
303 308 
303 310 
304 307 
304 309 
305 306 
305 309 
305 310 
306 307 
306 308 
307 308 
307 309 
307 310 
308 309 
308 310 
309 310 
311 318 
311 319 
312 317 
312 320 
313 314 
313 318 
313 320 
313 323 
314 317 
314 319 
314 324 
315 316 
315 319 
315 320 
315 325 
316 317 
316 318 
316 326 
317 318 
317 319 
317 320 
318 319 
318 320 
319 320 
321 328 
321 329 
321 331 
322 327 
322 330 
322 332 
323 324 
323 328 
323 330 
324 327 
324 329 
325 326 
325 329 
325 330 
326 327 
326 328 
327 328 
327 329 
327 330 
328 329 
328 330 
329 330 
331 338 
331 339 
332 337 
332 340 
333 334 
333 338 
333 340 
333 343 
334 337 
334 339 
334 344 
335 336 
335 339 
335 340 
335 345 
336 337 
336 338 
336 346 
337 338 
337 339 
337 340 
338 339 
338 340 
339 340 
341 348 
341 349 
341 351 
342 347 
342 350 
342 352 
343 344 
343 348 
343 350 
344 347 
344 349 
345 346 
345 349 
345 350 
346 347 
346 348 
347 348 
347 349 
347 350 
348 349 
348 350 
349 350 
351 358 
351 359 
352 357 
352 360 
353 354 
353 358 
353 360 
353 363 
354 357 
354 359 
354 364 
355 356 
355 359 
355 360 
355 365 
356 357 
356 358 
356 366 
357 358 
357 359 
357 360 
358 359 
358 360 
359 360 
361 368 
361 369 
361 371 
362 367 
362 370 
362 372 
363 364 
363 368 
363 370 
364 367 
364 369 
365 366 
365 369 
365 370 
366 367 
366 368 
367 368 
367 369 
367 370 
368 369 
368 370 
369 370 
371 378 
371 379 
372 377 
372 380 
373 374 
373 378 
373 380 
373 383 
374 377 
374 379 
374 384 
375 376 
375 379 
375 380 
375 385 
376 377 
376 378 
376 386 
377 378 
377 379 
377 380 
378 379 
378 380 
379 380 
381 388 
381 389 
381 391 
382 387 
382 390 
382 392 
383 384 
383 388 
383 390 
384 387 
384 389 
385 386 
385 389 
385 390 
386 387 
386 388 
387 388 
387 389 
387 390 
388 389 
388 390 
389 390 
391 398 
391 399 
392 397 
392 400 
393 394 
393 398 
393 400 
393 403 
394 397 
394 399 
394 404 
395 396 
395 399 
395 400 
395 405 
396 397 
396 398 
396 406 
397 398 
397 399 
397 400 
398 399 
398 400 
399 400 
401 408 
401 409 
401 411 
402 407 
402 410 
402 412 
403 404 
403 408 
403 410 
404 407 
404 409 
405 406 
405 409 
405 410 
406 407 
406 408 
407 408 
407 409 
407 410 
408 409 
408 410 
409 410 
411 418 
411 419 
412 417 
412 420 
413 414 
413 418 
413 420 
413 423 
414 417 
414 419 
414 424 
415 416 
415 419 
415 420 
415 425 
416 417 
416 418 
416 426 
417 418 
417 419 
417 420 
418 419 
418 420 
419 420 
421 428 
421 429 
421 431 
422 427 
422 430 
422 432 
423 424 
423 428 
423 430 
424 427 
424 429 
425 426 
425 429 
425 430 
426 427 
426 428 
427 428 
427 429 
427 430 
428 429 
428 430 
429 430 
431 438 
431 439 
432 437 
432 440 
433 434 
433 438 
433 440 
433 443 
434 437 
434 439 
434 444 
435 436 
435 439 
435 440 
435 445 
436 437 
436 438 
436 446 
437 438 
437 439 
437 440 
438 439 
438 440 
439 440 
441 448 
441 449 
441 451 
442 447 
442 450 
442 452 
443 444 
443 448 
443 450 
444 447 
444 449 
445 446 
445 449 
445 450 
446 447 
446 448 
447 448 
447 449 
447 450 
448 449 
448 450 
449 450 
451 458 
451 459 
452 457 
452 460 
453 454 
453 458 
453 460 
453 463 
454 457 
454 459 
454 464 
455 456 
455 459 
455 460 
455 465 
456 457 
456 458 
456 466 
457 458 
457 459 
457 460 
458 459 
458 460 
459 460 
461 468 
461 469 
461 471 
462 467 
462 470 
462 472 
463 464 
463 468 
463 470 
464 467 
464 469 
465 466 
465 469 
465 470 
466 467 
466 468 
467 468 
467 469 
467 470 
468 469 
468 470 
469 470 
471 478 
471 479 
472 477 
472 480 
473 474 
473 478 
473 480 
473 483 
474 477 
474 479 
474 484 
475 476 
475 479 
475 480 
475 485 
476 477 
476 478 
476 486 
477 478 
477 479 
477 480 
478 479 
478 480 
479 480 
481 488 
481 489 
481 491 
482 487 
482 490 
482 492 
483 484 
483 488 
483 490 
484 487 
484 489 
485 486 
485 489 
485 490 
486 487 
486 488 
487 488 
487 489 
487 490 
488 489 
488 490 
489 490 
491 498 
491 499 
492 497 
492 500 
493 494 
493 498 
493 500 
493 503 
494 497 
494 499 
494 504 
495 496 
495 499 
495 500 
495 505 
496 497 
496 498 
496 506 
497 498 
497 499 
497 500 
498 499 
498 500 
499 500 
501 508 
501 509 
501 511 
502 507 
502 510 
502 512 
503 504 
503 508 
503 510 
504 507 
504 509 
505 506 
505 509 
505 510 
506 507 
506 508 
507 508 
507 509 
507 510 
508 509 
508 510 
509 510 
511 518 
511 519 
512 517 
512 520 
513 514 
513 515 
513 518 
513 520 
514 516 
514 517 
514 519 
515 516 
515 519 
515 520 
516 517 
516 518 
517 518 
517 519 
517 520 
518 519 
518 520 
519 520 
